\ENCODING=ISO-8859-1
\Problem name: DECEPTION

Maximize
 obj: d
Subject To
 UTILITY_TF_59#0:       sigma_k871_o59 + 6 sigma_k872_o59 + 8 sigma_k873_o59
                        + 9 sigma_k874_o59 + 7 sigma_k875_o59
                        + 6 sigma_k876_o59 + 5 sigma_k877_o59 + sigma_k878_o59
                        + 3 sigma_k879_o59 + 8 sigma_k880_o59 + sigma_k881_o59
                        + 6 sigma_k882_o59 + 6 sigma_k883_o59
                        + 6 sigma_k884_o59 + 8 sigma_k885_o59 + sigma_k886_o59
                        + 5 sigma_k887_o59 + 6 sigma_k888_o59
                        + 4 sigma_k889_o59 + 7 sigma_k890_o59
                        + 2 sigma_k891_o59 + 9 sigma_k892_o59
                        + 9 sigma_k893_o59 + 7 sigma_k894_o59
                        + 3 sigma_k895_o59 + 3 sigma_k896_o59
                        + 8 sigma_k897_o59 + 8 sigma_k898_o59
                        + 4 sigma_k899_o59 + 3 sigma_k900_o59 + Z_k871_o59
                        + Z_k872_o59 + Z_k873_o59 + Z_k874_o59 + Z_k875_o59
                        + Z_k876_o59 + Z_k877_o59 + Z_k878_o59 + Z_k879_o59
                        + Z_k880_o59 + Z_k881_o59 + Z_k882_o59 + Z_k883_o59
                        + Z_k884_o59 + Z_k885_o59 + Z_k886_o59 + Z_k887_o59
                        + Z_k888_o59 + Z_k889_o59 + Z_k890_o59 + Z_k891_o59
                        + Z_k892_o59 + Z_k893_o59 + Z_k894_o59 + Z_k895_o59
                        + Z_k896_o59 + Z_k897_o59 + Z_k898_o59 + Z_k899_o59
                        + Z_k900_o59 <= 0
 UTILITY_TF_60#1:       sigma_k871_o60 + 6 sigma_k872_o60 + 8 sigma_k873_o60
                        + 9 sigma_k874_o60 + 7 sigma_k875_o60
                        + 6 sigma_k876_o60 + 5 sigma_k877_o60 + sigma_k878_o60
                        + 3 sigma_k879_o60 + 8 sigma_k880_o60 + sigma_k881_o60
                        + 6 sigma_k882_o60 + 6 sigma_k883_o60
                        + 6 sigma_k884_o60 + 8 sigma_k885_o60 + sigma_k886_o60
                        + 5 sigma_k887_o60 + 6 sigma_k888_o60
                        + 4 sigma_k889_o60 + 7 sigma_k890_o60
                        + 2 sigma_k891_o60 + 9 sigma_k892_o60
                        + 9 sigma_k893_o60 + 7 sigma_k894_o60
                        + 3 sigma_k895_o60 + 3 sigma_k896_o60
                        + 8 sigma_k897_o60 + 8 sigma_k898_o60
                        + 4 sigma_k899_o60 + 3 sigma_k900_o60 + Z_k871_o60
                        + Z_k872_o60 + Z_k873_o60 + Z_k874_o60 + Z_k875_o60
                        + Z_k876_o60 + Z_k877_o60 + Z_k878_o60 + Z_k879_o60
                        + Z_k880_o60 + Z_k881_o60 + Z_k882_o60 + Z_k883_o60
                        + Z_k884_o60 + Z_k885_o60 + Z_k886_o60 + Z_k887_o60
                        + Z_k888_o60 + Z_k889_o60 + Z_k890_o60 + Z_k891_o60
                        + Z_k892_o60 + Z_k893_o60 + Z_k894_o60 + Z_k895_o60
                        + Z_k896_o60 + Z_k897_o60 + Z_k898_o60 + Z_k899_o60
                        + Z_k900_o60 <= 0
 _EQ_K871#2:            sigma_k871_o59 + sigma_k871_o60  = 1
 _EQ_K872#3:            sigma_k872_o59 + sigma_k872_o60  = 1
 _EQ_K873#4:            sigma_k873_o59 + sigma_k873_o60  = 1
 _EQ_K874#5:            sigma_k874_o59 + sigma_k874_o60  = 1
 _EQ_K875#6:            sigma_k875_o59 + sigma_k875_o60  = 1
 _EQ_K876#7:            sigma_k876_o59 + sigma_k876_o60  = 1
 _EQ_K877#8:            sigma_k877_o59 + sigma_k877_o60  = 1
 _EQ_K878#9:            sigma_k878_o59 + sigma_k878_o60  = 1
 _EQ_K879#10:           sigma_k879_o59 + sigma_k879_o60  = 1
 _EQ_K880#11:           sigma_k880_o59 + sigma_k880_o60  = 1
 _EQ_K881#12:           sigma_k881_o59 + sigma_k881_o60  = 1
 _EQ_K882#13:           sigma_k882_o59 + sigma_k882_o60  = 1
 _EQ_K883#14:           sigma_k883_o59 + sigma_k883_o60  = 1
 _EQ_K884#15:           sigma_k884_o59 + sigma_k884_o60  = 1
 _EQ_K885#16:           sigma_k885_o59 + sigma_k885_o60  = 1
 _EQ_K886#17:           sigma_k886_o59 + sigma_k886_o60  = 1
 _EQ_K887#18:           sigma_k887_o59 + sigma_k887_o60  = 1
 _EQ_K888#19:           sigma_k888_o59 + sigma_k888_o60  = 1
 _EQ_K889#20:           sigma_k889_o59 + sigma_k889_o60  = 1
 _EQ_K890#21:           sigma_k890_o59 + sigma_k890_o60  = 1
 _EQ_K891#22:           sigma_k891_o59 + sigma_k891_o60  = 1
 _EQ_K892#23:           sigma_k892_o59 + sigma_k892_o60  = 1
 _EQ_K893#24:           sigma_k893_o59 + sigma_k893_o60  = 1
 _EQ_K894#25:           sigma_k894_o59 + sigma_k894_o60  = 1
 _EQ_K895#26:           sigma_k895_o59 + sigma_k895_o60  = 1
 _EQ_K896#27:           sigma_k896_o59 + sigma_k896_o60  = 1
 _EQ_K897#28:           sigma_k897_o59 + sigma_k897_o60  = 1
 _EQ_K898#29:           sigma_k898_o59 + sigma_k898_o60  = 1
 _EQ_K899#30:           sigma_k899_o59 + sigma_k899_o60  = 1
 _EQ_K900#31:           sigma_k900_o59 + sigma_k900_o60  = 1
 Z1_LEFT_K871_O59#32:   - Z_k871_o59 <= 9
 Z1_RIGHT_K871_O59#33:  Z_k871_o59 <= 0
 Z1_LEFT_K871_O60#34:   - Z_k871_o60 <= 9
 Z1_RIGHT_K871_O60#35:  Z_k871_o60 <= 0
 Z1_LEFT_K872_O59#36:   - Z_k872_o59 <= 9
 Z1_RIGHT_K872_O59#37:  Z_k872_o59 <= 0
 Z1_LEFT_K872_O60#38:   - Z_k872_o60 <= 9
 Z1_RIGHT_K872_O60#39:  Z_k872_o60 <= 0
 Z1_LEFT_K873_O59#40:   - Z_k873_o59 <= 9
 Z1_RIGHT_K873_O59#41:  Z_k873_o59 <= 0
 Z1_LEFT_K873_O60#42:   - Z_k873_o60 <= 9
 Z1_RIGHT_K873_O60#43:  Z_k873_o60 <= 0
 Z1_LEFT_K874_O59#44:   - Z_k874_o59 <= 9
 Z1_RIGHT_K874_O59#45:  Z_k874_o59 <= 0
 Z1_LEFT_K874_O60#46:   - Z_k874_o60 <= 9
 Z1_RIGHT_K874_O60#47:  Z_k874_o60 <= 0
 Z1_LEFT_K875_O59#48:   - Z_k875_o59 <= 9
 Z1_RIGHT_K875_O59#49:  Z_k875_o59 <= 0
 Z1_LEFT_K875_O60#50:   - Z_k875_o60 <= 9
 Z1_RIGHT_K875_O60#51:  Z_k875_o60 <= 0
 Z1_LEFT_K876_O59#52:   - Z_k876_o59 <= 9
 Z1_RIGHT_K876_O59#53:  Z_k876_o59 <= 0
 Z1_LEFT_K876_O60#54:   - Z_k876_o60 <= 9
 Z1_RIGHT_K876_O60#55:  Z_k876_o60 <= 0
 Z1_LEFT_K877_O59#56:   - Z_k877_o59 <= 9
 Z1_RIGHT_K877_O59#57:  Z_k877_o59 <= 0
 Z1_LEFT_K877_O60#58:   - Z_k877_o60 <= 9
 Z1_RIGHT_K877_O60#59:  Z_k877_o60 <= 0
 Z1_LEFT_K878_O59#60:   - Z_k878_o59 <= 9
 Z1_RIGHT_K878_O59#61:  Z_k878_o59 <= 0
 Z1_LEFT_K878_O60#62:   - Z_k878_o60 <= 9
 Z1_RIGHT_K878_O60#63:  Z_k878_o60 <= 0
 Z1_LEFT_K879_O59#64:   - Z_k879_o59 <= 9
 Z1_RIGHT_K879_O59#65:  Z_k879_o59 <= 0
 Z1_LEFT_K879_O60#66:   - Z_k879_o60 <= 9
 Z1_RIGHT_K879_O60#67:  Z_k879_o60 <= 0
 Z1_LEFT_K880_O59#68:   - Z_k880_o59 <= 9
 Z1_RIGHT_K880_O59#69:  Z_k880_o59 <= 0
 Z1_LEFT_K880_O60#70:   - Z_k880_o60 <= 9
 Z1_RIGHT_K880_O60#71:  Z_k880_o60 <= 0
 Z1_LEFT_K881_O59#72:   - Z_k881_o59 <= 9
 Z1_RIGHT_K881_O59#73:  Z_k881_o59 <= 0
 Z1_LEFT_K881_O60#74:   - Z_k881_o60 <= 9
 Z1_RIGHT_K881_O60#75:  Z_k881_o60 <= 0
 Z1_LEFT_K882_O59#76:   - Z_k882_o59 <= 9
 Z1_RIGHT_K882_O59#77:  Z_k882_o59 <= 0
 Z1_LEFT_K882_O60#78:   - Z_k882_o60 <= 9
 Z1_RIGHT_K882_O60#79:  Z_k882_o60 <= 0
 Z1_LEFT_K883_O59#80:   - Z_k883_o59 <= 9
 Z1_RIGHT_K883_O59#81:  Z_k883_o59 <= 0
 Z1_LEFT_K883_O60#82:   - Z_k883_o60 <= 9
 Z1_RIGHT_K883_O60#83:  Z_k883_o60 <= 0
 Z1_LEFT_K884_O59#84:   - Z_k884_o59 <= 9
 Z1_RIGHT_K884_O59#85:  Z_k884_o59 <= 0
 Z1_LEFT_K884_O60#86:   - Z_k884_o60 <= 9
 Z1_RIGHT_K884_O60#87:  Z_k884_o60 <= 0
 Z1_LEFT_K885_O59#88:   - Z_k885_o59 <= 9
 Z1_RIGHT_K885_O59#89:  Z_k885_o59 <= 0
 Z1_LEFT_K885_O60#90:   - Z_k885_o60 <= 9
 Z1_RIGHT_K885_O60#91:  Z_k885_o60 <= 0
 Z1_LEFT_K886_O59#92:   - Z_k886_o59 <= 9
 Z1_RIGHT_K886_O59#93:  Z_k886_o59 <= 0
 Z1_LEFT_K886_O60#94:   - Z_k886_o60 <= 9
 Z1_RIGHT_K886_O60#95:  Z_k886_o60 <= 0
 Z1_LEFT_K887_O59#96:   - Z_k887_o59 <= 9
 Z1_RIGHT_K887_O59#97:  Z_k887_o59 <= 0
 Z1_LEFT_K887_O60#98:   - Z_k887_o60 <= 9
 Z1_RIGHT_K887_O60#99:  Z_k887_o60 <= 0
 Z1_LEFT_K888_O59#100:  - Z_k888_o59 <= 9
 Z1_RIGHT_K888_O59#101: Z_k888_o59 <= 0
 Z1_LEFT_K888_O60#102:  - Z_k888_o60 <= 9
 Z1_RIGHT_K888_O60#103: Z_k888_o60 <= 0
 Z1_LEFT_K889_O59#104:  - Z_k889_o59 <= 9
 Z1_RIGHT_K889_O59#105: Z_k889_o59 <= 0
 Z1_LEFT_K889_O60#106:  - Z_k889_o60 <= 9
 Z1_RIGHT_K889_O60#107: Z_k889_o60 <= 0
 Z1_LEFT_K890_O59#108:  - Z_k890_o59 <= 9
 Z1_RIGHT_K890_O59#109: Z_k890_o59 <= 0
 Z1_LEFT_K890_O60#110:  - Z_k890_o60 <= 9
 Z1_RIGHT_K890_O60#111: Z_k890_o60 <= 0
 Z1_LEFT_K891_O59#112:  - Z_k891_o59 <= 9
 Z1_RIGHT_K891_O59#113: Z_k891_o59 <= 0
 Z1_LEFT_K891_O60#114:  - Z_k891_o60 <= 9
 Z1_RIGHT_K891_O60#115: Z_k891_o60 <= 0
 Z1_LEFT_K892_O59#116:  - Z_k892_o59 <= 9
 Z1_RIGHT_K892_O59#117: Z_k892_o59 <= 0
 Z1_LEFT_K892_O60#118:  - Z_k892_o60 <= 9
 Z1_RIGHT_K892_O60#119: Z_k892_o60 <= 0
 Z1_LEFT_K893_O59#120:  - Z_k893_o59 <= 9
 Z1_RIGHT_K893_O59#121: Z_k893_o59 <= 0
 Z1_LEFT_K893_O60#122:  - Z_k893_o60 <= 9
 Z1_RIGHT_K893_O60#123: Z_k893_o60 <= 0
 Z1_LEFT_K894_O59#124:  - Z_k894_o59 <= 9
 Z1_RIGHT_K894_O59#125: Z_k894_o59 <= 0
 Z1_LEFT_K894_O60#126:  - Z_k894_o60 <= 9
 Z1_RIGHT_K894_O60#127: Z_k894_o60 <= 0
 Z1_LEFT_K895_O59#128:  - Z_k895_o59 <= 9
 Z1_RIGHT_K895_O59#129: Z_k895_o59 <= 0
 Z1_LEFT_K895_O60#130:  - Z_k895_o60 <= 9
 Z1_RIGHT_K895_O60#131: Z_k895_o60 <= 0
 Z1_LEFT_K896_O59#132:  - Z_k896_o59 <= 9
 Z1_RIGHT_K896_O59#133: Z_k896_o59 <= 0
 Z1_LEFT_K896_O60#134:  - Z_k896_o60 <= 9
 Z1_RIGHT_K896_O60#135: Z_k896_o60 <= 0
 Z1_LEFT_K897_O59#136:  - Z_k897_o59 <= 9
 Z1_RIGHT_K897_O59#137: Z_k897_o59 <= 0
 Z1_LEFT_K897_O60#138:  - Z_k897_o60 <= 9
 Z1_RIGHT_K897_O60#139: Z_k897_o60 <= 0
 Z1_LEFT_K898_O59#140:  - Z_k898_o59 <= 9
 Z1_RIGHT_K898_O59#141: Z_k898_o59 <= 0
 Z1_LEFT_K898_O60#142:  - Z_k898_o60 <= 9
 Z1_RIGHT_K898_O60#143: Z_k898_o60 <= 0
 Z1_LEFT_K899_O59#144:  - Z_k899_o59 <= 9
 Z1_RIGHT_K899_O59#145: Z_k899_o59 <= 0
 Z1_LEFT_K899_O60#146:  - Z_k899_o60 <= 9
 Z1_RIGHT_K899_O60#147: Z_k899_o60 <= 0
 Z1_LEFT_K900_O59#148:  - Z_k900_o59 <= 9
 Z1_RIGHT_K900_O59#149: Z_k900_o59 <= 0
 Z1_LEFT_K900_O60#150:  - Z_k900_o60 <= 9
 Z1_RIGHT_K900_O60#151: Z_k900_o60 <= 0
 Z2_K871_O59#152:       - 9 sigma_k871_o59 - Z_k871_o59 <= 0
 Z2_K871_O60#153:       - 9 sigma_k871_o60 - Z_k871_o60 <= 0
 Z2_K872_O59#154:       - 9 sigma_k872_o59 - Z_k872_o59 <= 0
 Z2_K872_O60#155:       - 9 sigma_k872_o60 - Z_k872_o60 <= 0
 Z2_K873_O59#156:       - 9 sigma_k873_o59 - Z_k873_o59 <= 0
 Z2_K873_O60#157:       - 9 sigma_k873_o60 - Z_k873_o60 <= 0
 Z2_K874_O59#158:       - 9 sigma_k874_o59 - Z_k874_o59 <= 0
 Z2_K874_O60#159:       - 9 sigma_k874_o60 - Z_k874_o60 <= 0
 Z2_K875_O59#160:       - 9 sigma_k875_o59 - Z_k875_o59 <= 0
 Z2_K875_O60#161:       - 9 sigma_k875_o60 - Z_k875_o60 <= 0
 Z2_K876_O59#162:       - 9 sigma_k876_o59 - Z_k876_o59 <= 0
 Z2_K876_O60#163:       - 9 sigma_k876_o60 - Z_k876_o60 <= 0
 Z2_K877_O59#164:       - 9 sigma_k877_o59 - Z_k877_o59 <= 0
 Z2_K877_O60#165:       - 9 sigma_k877_o60 - Z_k877_o60 <= 0
 Z2_K878_O59#166:       - 9 sigma_k878_o59 - Z_k878_o59 <= 0
 Z2_K878_O60#167:       - 9 sigma_k878_o60 - Z_k878_o60 <= 0
 Z2_K879_O59#168:       - 9 sigma_k879_o59 - Z_k879_o59 <= 0
 Z2_K879_O60#169:       - 9 sigma_k879_o60 - Z_k879_o60 <= 0
 Z2_K880_O59#170:       - 9 sigma_k880_o59 - Z_k880_o59 <= 0
 Z2_K880_O60#171:       - 9 sigma_k880_o60 - Z_k880_o60 <= 0
 Z2_K881_O59#172:       - 9 sigma_k881_o59 - Z_k881_o59 <= 0
 Z2_K881_O60#173:       - 9 sigma_k881_o60 - Z_k881_o60 <= 0
 Z2_K882_O59#174:       - 9 sigma_k882_o59 - Z_k882_o59 <= 0
 Z2_K882_O60#175:       - 9 sigma_k882_o60 - Z_k882_o60 <= 0
 Z2_K883_O59#176:       - 9 sigma_k883_o59 - Z_k883_o59 <= 0
 Z2_K883_O60#177:       - 9 sigma_k883_o60 - Z_k883_o60 <= 0
 Z2_K884_O59#178:       - 9 sigma_k884_o59 - Z_k884_o59 <= 0
 Z2_K884_O60#179:       - 9 sigma_k884_o60 - Z_k884_o60 <= 0
 Z2_K885_O59#180:       - 9 sigma_k885_o59 - Z_k885_o59 <= 0
 Z2_K885_O60#181:       - 9 sigma_k885_o60 - Z_k885_o60 <= 0
 Z2_K886_O59#182:       - 9 sigma_k886_o59 - Z_k886_o59 <= 0
 Z2_K886_O60#183:       - 9 sigma_k886_o60 - Z_k886_o60 <= 0
 Z2_K887_O59#184:       - 9 sigma_k887_o59 - Z_k887_o59 <= 0
 Z2_K887_O60#185:       - 9 sigma_k887_o60 - Z_k887_o60 <= 0
 Z2_K888_O59#186:       - 9 sigma_k888_o59 - Z_k888_o59 <= 0
 Z2_K888_O60#187:       - 9 sigma_k888_o60 - Z_k888_o60 <= 0
 Z2_K889_O59#188:       - 9 sigma_k889_o59 - Z_k889_o59 <= 0
 Z2_K889_O60#189:       - 9 sigma_k889_o60 - Z_k889_o60 <= 0
 Z2_K890_O59#190:       - 9 sigma_k890_o59 - Z_k890_o59 <= 0
 Z2_K890_O60#191:       - 9 sigma_k890_o60 - Z_k890_o60 <= 0
 Z2_K891_O59#192:       - 9 sigma_k891_o59 - Z_k891_o59 <= 0
 Z2_K891_O60#193:       - 9 sigma_k891_o60 - Z_k891_o60 <= 0
 Z2_K892_O59#194:       - 9 sigma_k892_o59 - Z_k892_o59 <= 0
 Z2_K892_O60#195:       - 9 sigma_k892_o60 - Z_k892_o60 <= 0
 Z2_K893_O59#196:       - 9 sigma_k893_o59 - Z_k893_o59 <= 0
 Z2_K893_O60#197:       - 9 sigma_k893_o60 - Z_k893_o60 <= 0
 Z2_K894_O59#198:       - 9 sigma_k894_o59 - Z_k894_o59 <= 0
 Z2_K894_O60#199:       - 9 sigma_k894_o60 - Z_k894_o60 <= 0
 Z2_K895_O59#200:       - 9 sigma_k895_o59 - Z_k895_o59 <= 0
 Z2_K895_O60#201:       - 9 sigma_k895_o60 - Z_k895_o60 <= 0
 Z2_K896_O59#202:       - 9 sigma_k896_o59 - Z_k896_o59 <= 0
 Z2_K896_O60#203:       - 9 sigma_k896_o60 - Z_k896_o60 <= 0
 Z2_K897_O59#204:       - 9 sigma_k897_o59 - Z_k897_o59 <= 0
 Z2_K897_O60#205:       - 9 sigma_k897_o60 - Z_k897_o60 <= 0
 Z2_K898_O59#206:       - 9 sigma_k898_o59 - Z_k898_o59 <= 0
 Z2_K898_O60#207:       - 9 sigma_k898_o60 - Z_k898_o60 <= 0
 Z2_K899_O59#208:       - 9 sigma_k899_o59 - Z_k899_o59 <= 0
 Z2_K899_O60#209:       - 9 sigma_k899_o60 - Z_k899_o60 <= 0
 Z2_K900_O59#210:       - 9 sigma_k900_o59 - Z_k900_o59 <= 0
 Z2_K900_O60#211:       - 9 sigma_k900_o60 - Z_k900_o60 <= 0
 Z3_LEFT_K871_O59#212:  - Z_k871_o59 + d <= 0
 Z3_RIGHT_K871_O59#213: - 9 sigma_k871_o59 + Z_k871_o59 - d <= 9
 Z3_LEFT_K871_O60#214:  - Z_k871_o60 + d <= 0
 Z3_RIGHT_K871_O60#215: - 9 sigma_k871_o60 + Z_k871_o60 - d <= 9
 Z3_LEFT_K872_O59#216:  - Z_k872_o59 + d <= 0
 Z3_RIGHT_K872_O59#217: - 9 sigma_k872_o59 + Z_k872_o59 - d <= 9
 Z3_LEFT_K872_O60#218:  - Z_k872_o60 + d <= 0
 Z3_RIGHT_K872_O60#219: - 9 sigma_k872_o60 + Z_k872_o60 - d <= 9
 Z3_LEFT_K873_O59#220:  - Z_k873_o59 + d <= 0
 Z3_RIGHT_K873_O59#221: - 9 sigma_k873_o59 + Z_k873_o59 - d <= 9
 Z3_LEFT_K873_O60#222:  - Z_k873_o60 + d <= 0
 Z3_RIGHT_K873_O60#223: - 9 sigma_k873_o60 + Z_k873_o60 - d <= 9
 Z3_LEFT_K874_O59#224:  - Z_k874_o59 + d <= 0
 Z3_RIGHT_K874_O59#225: - 9 sigma_k874_o59 + Z_k874_o59 - d <= 9
 Z3_LEFT_K874_O60#226:  - Z_k874_o60 + d <= 0
 Z3_RIGHT_K874_O60#227: - 9 sigma_k874_o60 + Z_k874_o60 - d <= 9
 Z3_LEFT_K875_O59#228:  - Z_k875_o59 + d <= 0
 Z3_RIGHT_K875_O59#229: - 9 sigma_k875_o59 + Z_k875_o59 - d <= 9
 Z3_LEFT_K875_O60#230:  - Z_k875_o60 + d <= 0
 Z3_RIGHT_K875_O60#231: - 9 sigma_k875_o60 + Z_k875_o60 - d <= 9
 Z3_LEFT_K876_O59#232:  - Z_k876_o59 + d <= 0
 Z3_RIGHT_K876_O59#233: - 9 sigma_k876_o59 + Z_k876_o59 - d <= 9
 Z3_LEFT_K876_O60#234:  - Z_k876_o60 + d <= 0
 Z3_RIGHT_K876_O60#235: - 9 sigma_k876_o60 + Z_k876_o60 - d <= 9
 Z3_LEFT_K877_O59#236:  - Z_k877_o59 + d <= 0
 Z3_RIGHT_K877_O59#237: - 9 sigma_k877_o59 + Z_k877_o59 - d <= 9
 Z3_LEFT_K877_O60#238:  - Z_k877_o60 + d <= 0
 Z3_RIGHT_K877_O60#239: - 9 sigma_k877_o60 + Z_k877_o60 - d <= 9
 Z3_LEFT_K878_O59#240:  - Z_k878_o59 + d <= 0
 Z3_RIGHT_K878_O59#241: - 9 sigma_k878_o59 + Z_k878_o59 - d <= 9
 Z3_LEFT_K878_O60#242:  - Z_k878_o60 + d <= 0
 Z3_RIGHT_K878_O60#243: - 9 sigma_k878_o60 + Z_k878_o60 - d <= 9
 Z3_LEFT_K879_O59#244:  - Z_k879_o59 + d <= 0
 Z3_RIGHT_K879_O59#245: - 9 sigma_k879_o59 + Z_k879_o59 - d <= 9
 Z3_LEFT_K879_O60#246:  - Z_k879_o60 + d <= 0
 Z3_RIGHT_K879_O60#247: - 9 sigma_k879_o60 + Z_k879_o60 - d <= 9
 Z3_LEFT_K880_O59#248:  - Z_k880_o59 + d <= 0
 Z3_RIGHT_K880_O59#249: - 9 sigma_k880_o59 + Z_k880_o59 - d <= 9
 Z3_LEFT_K880_O60#250:  - Z_k880_o60 + d <= 0
 Z3_RIGHT_K880_O60#251: - 9 sigma_k880_o60 + Z_k880_o60 - d <= 9
 Z3_LEFT_K881_O59#252:  - Z_k881_o59 + d <= 0
 Z3_RIGHT_K881_O59#253: - 9 sigma_k881_o59 + Z_k881_o59 - d <= 9
 Z3_LEFT_K881_O60#254:  - Z_k881_o60 + d <= 0
 Z3_RIGHT_K881_O60#255: - 9 sigma_k881_o60 + Z_k881_o60 - d <= 9
 Z3_LEFT_K882_O59#256:  - Z_k882_o59 + d <= 0
 Z3_RIGHT_K882_O59#257: - 9 sigma_k882_o59 + Z_k882_o59 - d <= 9
 Z3_LEFT_K882_O60#258:  - Z_k882_o60 + d <= 0
 Z3_RIGHT_K882_O60#259: - 9 sigma_k882_o60 + Z_k882_o60 - d <= 9
 Z3_LEFT_K883_O59#260:  - Z_k883_o59 + d <= 0
 Z3_RIGHT_K883_O59#261: - 9 sigma_k883_o59 + Z_k883_o59 - d <= 9
 Z3_LEFT_K883_O60#262:  - Z_k883_o60 + d <= 0
 Z3_RIGHT_K883_O60#263: - 9 sigma_k883_o60 + Z_k883_o60 - d <= 9
 Z3_LEFT_K884_O59#264:  - Z_k884_o59 + d <= 0
 Z3_RIGHT_K884_O59#265: - 9 sigma_k884_o59 + Z_k884_o59 - d <= 9
 Z3_LEFT_K884_O60#266:  - Z_k884_o60 + d <= 0
 Z3_RIGHT_K884_O60#267: - 9 sigma_k884_o60 + Z_k884_o60 - d <= 9
 Z3_LEFT_K885_O59#268:  - Z_k885_o59 + d <= 0
 Z3_RIGHT_K885_O59#269: - 9 sigma_k885_o59 + Z_k885_o59 - d <= 9
 Z3_LEFT_K885_O60#270:  - Z_k885_o60 + d <= 0
 Z3_RIGHT_K885_O60#271: - 9 sigma_k885_o60 + Z_k885_o60 - d <= 9
 Z3_LEFT_K886_O59#272:  - Z_k886_o59 + d <= 0
 Z3_RIGHT_K886_O59#273: - 9 sigma_k886_o59 + Z_k886_o59 - d <= 9
 Z3_LEFT_K886_O60#274:  - Z_k886_o60 + d <= 0
 Z3_RIGHT_K886_O60#275: - 9 sigma_k886_o60 + Z_k886_o60 - d <= 9
 Z3_LEFT_K887_O59#276:  - Z_k887_o59 + d <= 0
 Z3_RIGHT_K887_O59#277: - 9 sigma_k887_o59 + Z_k887_o59 - d <= 9
 Z3_LEFT_K887_O60#278:  - Z_k887_o60 + d <= 0
 Z3_RIGHT_K887_O60#279: - 9 sigma_k887_o60 + Z_k887_o60 - d <= 9
 Z3_LEFT_K888_O59#280:  - Z_k888_o59 + d <= 0
 Z3_RIGHT_K888_O59#281: - 9 sigma_k888_o59 + Z_k888_o59 - d <= 9
 Z3_LEFT_K888_O60#282:  - Z_k888_o60 + d <= 0
 Z3_RIGHT_K888_O60#283: - 9 sigma_k888_o60 + Z_k888_o60 - d <= 9
 Z3_LEFT_K889_O59#284:  - Z_k889_o59 + d <= 0
 Z3_RIGHT_K889_O59#285: - 9 sigma_k889_o59 + Z_k889_o59 - d <= 9
 Z3_LEFT_K889_O60#286:  - Z_k889_o60 + d <= 0
 Z3_RIGHT_K889_O60#287: - 9 sigma_k889_o60 + Z_k889_o60 - d <= 9
 Z3_LEFT_K890_O59#288:  - Z_k890_o59 + d <= 0
 Z3_RIGHT_K890_O59#289: - 9 sigma_k890_o59 + Z_k890_o59 - d <= 9
 Z3_LEFT_K890_O60#290:  - Z_k890_o60 + d <= 0
 Z3_RIGHT_K890_O60#291: - 9 sigma_k890_o60 + Z_k890_o60 - d <= 9
 Z3_LEFT_K891_O59#292:  - Z_k891_o59 + d <= 0
 Z3_RIGHT_K891_O59#293: - 9 sigma_k891_o59 + Z_k891_o59 - d <= 9
 Z3_LEFT_K891_O60#294:  - Z_k891_o60 + d <= 0
 Z3_RIGHT_K891_O60#295: - 9 sigma_k891_o60 + Z_k891_o60 - d <= 9
 Z3_LEFT_K892_O59#296:  - Z_k892_o59 + d <= 0
 Z3_RIGHT_K892_O59#297: - 9 sigma_k892_o59 + Z_k892_o59 - d <= 9
 Z3_LEFT_K892_O60#298:  - Z_k892_o60 + d <= 0
 Z3_RIGHT_K892_O60#299: - 9 sigma_k892_o60 + Z_k892_o60 - d <= 9
 Z3_LEFT_K893_O59#300:  - Z_k893_o59 + d <= 0
 Z3_RIGHT_K893_O59#301: - 9 sigma_k893_o59 + Z_k893_o59 - d <= 9
 Z3_LEFT_K893_O60#302:  - Z_k893_o60 + d <= 0
 Z3_RIGHT_K893_O60#303: - 9 sigma_k893_o60 + Z_k893_o60 - d <= 9
 Z3_LEFT_K894_O59#304:  - Z_k894_o59 + d <= 0
 Z3_RIGHT_K894_O59#305: - 9 sigma_k894_o59 + Z_k894_o59 - d <= 9
 Z3_LEFT_K894_O60#306:  - Z_k894_o60 + d <= 0
 Z3_RIGHT_K894_O60#307: - 9 sigma_k894_o60 + Z_k894_o60 - d <= 9
 Z3_LEFT_K895_O59#308:  - Z_k895_o59 + d <= 0
 Z3_RIGHT_K895_O59#309: - 9 sigma_k895_o59 + Z_k895_o59 - d <= 9
 Z3_LEFT_K895_O60#310:  - Z_k895_o60 + d <= 0
 Z3_RIGHT_K895_O60#311: - 9 sigma_k895_o60 + Z_k895_o60 - d <= 9
 Z3_LEFT_K896_O59#312:  - Z_k896_o59 + d <= 0
 Z3_RIGHT_K896_O59#313: - 9 sigma_k896_o59 + Z_k896_o59 - d <= 9
 Z3_LEFT_K896_O60#314:  - Z_k896_o60 + d <= 0
 Z3_RIGHT_K896_O60#315: - 9 sigma_k896_o60 + Z_k896_o60 - d <= 9
 Z3_LEFT_K897_O59#316:  - Z_k897_o59 + d <= 0
 Z3_RIGHT_K897_O59#317: - 9 sigma_k897_o59 + Z_k897_o59 - d <= 9
 Z3_LEFT_K897_O60#318:  - Z_k897_o60 + d <= 0
 Z3_RIGHT_K897_O60#319: - 9 sigma_k897_o60 + Z_k897_o60 - d <= 9
 Z3_LEFT_K898_O59#320:  - Z_k898_o59 + d <= 0
 Z3_RIGHT_K898_O59#321: - 9 sigma_k898_o59 + Z_k898_o59 - d <= 9
 Z3_LEFT_K898_O60#322:  - Z_k898_o60 + d <= 0
 Z3_RIGHT_K898_O60#323: - 9 sigma_k898_o60 + Z_k898_o60 - d <= 9
 Z3_LEFT_K899_O59#324:  - Z_k899_o59 + d <= 0
 Z3_RIGHT_K899_O59#325: - 9 sigma_k899_o59 + Z_k899_o59 - d <= 9
 Z3_LEFT_K899_O60#326:  - Z_k899_o60 + d <= 0
 Z3_RIGHT_K899_O60#327: - 9 sigma_k899_o60 + Z_k899_o60 - d <= 9
 Z3_LEFT_K900_O59#328:  - Z_k900_o59 + d <= 0
 Z3_RIGHT_K900_O59#329: - 9 sigma_k900_o59 + Z_k900_o59 - d <= 9
 Z3_LEFT_K900_O60#330:  - Z_k900_o60 + d <= 0
 Z3_RIGHT_K900_O60#331: - 9 sigma_k900_o60 + Z_k900_o60 - d <= 9
 ZERO_K871_O60#332:     sigma_k871_o60  = 0
 ZERO_K872_O59#333:     sigma_k872_o59  = 0
 ZERO_K874_O59#334:     sigma_k874_o59  = 0
 ZERO_K875_O60#335:     sigma_k875_o60  = 0
 ZERO_K877_O59#336:     sigma_k877_o59  = 0
 ZERO_K878_O60#337:     sigma_k878_o60  = 0
 ZERO_K879_O60#338:     sigma_k879_o60  = 0
 ZERO_K880_O59#339:     sigma_k880_o59  = 0
 ZERO_K881_O60#340:     sigma_k881_o60  = 0
 ZERO_K882_O59#341:     sigma_k882_o59  = 0
 ZERO_K883_O59#342:     sigma_k883_o59  = 0
 ZERO_K884_O59#343:     sigma_k884_o59  = 0
 ZERO_K885_O60#344:     sigma_k885_o60  = 0
 ZERO_K886_O60#345:     sigma_k886_o60  = 0
 ZERO_K887_O59#346:     sigma_k887_o59  = 0
 ZERO_K888_O60#347:     sigma_k888_o60  = 0
 ZERO_K889_O60#348:     sigma_k889_o60  = 0
 ZERO_K890_O60#349:     sigma_k890_o60  = 0
 ZERO_K891_O59#350:     sigma_k891_o59  = 0
 ZERO_K892_O59#351:     sigma_k892_o59  = 0
 ZERO_K893_O59#352:     sigma_k893_o59  = 0
 ZERO_K894_O59#353:     sigma_k894_o59  = 0
 ZERO_K896_O60#354:     sigma_k896_o60  = 0
 ZERO_K897_O59#355:     sigma_k897_o59  = 0
 ZERO_K899_O60#356:     sigma_k899_o60  = 0
 ZERO_K900_O60#357:     sigma_k900_o60  = 0
Bounds
 0 <= sigma_k871_o59 <= 1
 0 <= sigma_k871_o60 <= 1
 0 <= sigma_k872_o59 <= 1
 0 <= sigma_k872_o60 <= 1
 0 <= sigma_k873_o59 <= 1
 0 <= sigma_k873_o60 <= 1
 0 <= sigma_k874_o59 <= 1
 0 <= sigma_k874_o60 <= 1
 0 <= sigma_k875_o59 <= 1
 0 <= sigma_k875_o60 <= 1
 0 <= sigma_k876_o59 <= 1
 0 <= sigma_k876_o60 <= 1
 0 <= sigma_k877_o59 <= 1
 0 <= sigma_k877_o60 <= 1
 0 <= sigma_k878_o59 <= 1
 0 <= sigma_k878_o60 <= 1
 0 <= sigma_k879_o59 <= 1
 0 <= sigma_k879_o60 <= 1
 0 <= sigma_k880_o59 <= 1
 0 <= sigma_k880_o60 <= 1
 0 <= sigma_k881_o59 <= 1
 0 <= sigma_k881_o60 <= 1
 0 <= sigma_k882_o59 <= 1
 0 <= sigma_k882_o60 <= 1
 0 <= sigma_k883_o59 <= 1
 0 <= sigma_k883_o60 <= 1
 0 <= sigma_k884_o59 <= 1
 0 <= sigma_k884_o60 <= 1
 0 <= sigma_k885_o59 <= 1
 0 <= sigma_k885_o60 <= 1
 0 <= sigma_k886_o59 <= 1
 0 <= sigma_k886_o60 <= 1
 0 <= sigma_k887_o59 <= 1
 0 <= sigma_k887_o60 <= 1
 0 <= sigma_k888_o59 <= 1
 0 <= sigma_k888_o60 <= 1
 0 <= sigma_k889_o59 <= 1
 0 <= sigma_k889_o60 <= 1
 0 <= sigma_k890_o59 <= 1
 0 <= sigma_k890_o60 <= 1
 0 <= sigma_k891_o59 <= 1
 0 <= sigma_k891_o60 <= 1
 0 <= sigma_k892_o59 <= 1
 0 <= sigma_k892_o60 <= 1
 0 <= sigma_k893_o59 <= 1
 0 <= sigma_k893_o60 <= 1
 0 <= sigma_k894_o59 <= 1
 0 <= sigma_k894_o60 <= 1
 0 <= sigma_k895_o59 <= 1
 0 <= sigma_k895_o60 <= 1
 0 <= sigma_k896_o59 <= 1
 0 <= sigma_k896_o60 <= 1
 0 <= sigma_k897_o59 <= 1
 0 <= sigma_k897_o60 <= 1
 0 <= sigma_k898_o59 <= 1
 0 <= sigma_k898_o60 <= 1
 0 <= sigma_k899_o59 <= 1
 0 <= sigma_k899_o60 <= 1
 0 <= sigma_k900_o59 <= 1
 0 <= sigma_k900_o60 <= 1
-100000 <= Z_k871_o59 <= 100000
-100000 <= Z_k871_o60 <= 100000
-100000 <= Z_k872_o59 <= 100000
-100000 <= Z_k872_o60 <= 100000
-100000 <= Z_k873_o59 <= 100000
-100000 <= Z_k873_o60 <= 100000
-100000 <= Z_k874_o59 <= 100000
-100000 <= Z_k874_o60 <= 100000
-100000 <= Z_k875_o59 <= 100000
-100000 <= Z_k875_o60 <= 100000
-100000 <= Z_k876_o59 <= 100000
-100000 <= Z_k876_o60 <= 100000
-100000 <= Z_k877_o59 <= 100000
-100000 <= Z_k877_o60 <= 100000
-100000 <= Z_k878_o59 <= 100000
-100000 <= Z_k878_o60 <= 100000
-100000 <= Z_k879_o59 <= 100000
-100000 <= Z_k879_o60 <= 100000
-100000 <= Z_k880_o59 <= 100000
-100000 <= Z_k880_o60 <= 100000
-100000 <= Z_k881_o59 <= 100000
-100000 <= Z_k881_o60 <= 100000
-100000 <= Z_k882_o59 <= 100000
-100000 <= Z_k882_o60 <= 100000
-100000 <= Z_k883_o59 <= 100000
-100000 <= Z_k883_o60 <= 100000
-100000 <= Z_k884_o59 <= 100000
-100000 <= Z_k884_o60 <= 100000
-100000 <= Z_k885_o59 <= 100000
-100000 <= Z_k885_o60 <= 100000
-100000 <= Z_k886_o59 <= 100000
-100000 <= Z_k886_o60 <= 100000
-100000 <= Z_k887_o59 <= 100000
-100000 <= Z_k887_o60 <= 100000
-100000 <= Z_k888_o59 <= 100000
-100000 <= Z_k888_o60 <= 100000
-100000 <= Z_k889_o59 <= 100000
-100000 <= Z_k889_o60 <= 100000
-100000 <= Z_k890_o59 <= 100000
-100000 <= Z_k890_o60 <= 100000
-100000 <= Z_k891_o59 <= 100000
-100000 <= Z_k891_o60 <= 100000
-100000 <= Z_k892_o59 <= 100000
-100000 <= Z_k892_o60 <= 100000
-100000 <= Z_k893_o59 <= 100000
-100000 <= Z_k893_o60 <= 100000
-100000 <= Z_k894_o59 <= 100000
-100000 <= Z_k894_o60 <= 100000
-100000 <= Z_k895_o59 <= 100000
-100000 <= Z_k895_o60 <= 100000
-100000 <= Z_k896_o59 <= 100000
-100000 <= Z_k896_o60 <= 100000
-100000 <= Z_k897_o59 <= 100000
-100000 <= Z_k897_o60 <= 100000
-100000 <= Z_k898_o59 <= 100000
-100000 <= Z_k898_o60 <= 100000
-100000 <= Z_k899_o59 <= 100000
-100000 <= Z_k899_o60 <= 100000
-100000 <= Z_k900_o59 <= 100000
-100000 <= Z_k900_o60 <= 100000
-9 <= d <= 0
Generals
 sigma_k871_o59  sigma_k871_o60  sigma_k872_o59  sigma_k872_o60 
 sigma_k873_o59  sigma_k873_o60  sigma_k874_o59  sigma_k874_o60 
 sigma_k875_o59  sigma_k875_o60  sigma_k876_o59  sigma_k876_o60 
 sigma_k877_o59  sigma_k877_o60  sigma_k878_o59  sigma_k878_o60 
 sigma_k879_o59  sigma_k879_o60  sigma_k880_o59  sigma_k880_o60 
 sigma_k881_o59  sigma_k881_o60  sigma_k882_o59  sigma_k882_o60 
 sigma_k883_o59  sigma_k883_o60  sigma_k884_o59  sigma_k884_o60 
 sigma_k885_o59  sigma_k885_o60  sigma_k886_o59  sigma_k886_o60 
 sigma_k887_o59  sigma_k887_o60  sigma_k888_o59  sigma_k888_o60 
 sigma_k889_o59  sigma_k889_o60  sigma_k890_o59  sigma_k890_o60 
 sigma_k891_o59  sigma_k891_o60  sigma_k892_o59  sigma_k892_o60 
 sigma_k893_o59  sigma_k893_o60  sigma_k894_o59  sigma_k894_o60 
 sigma_k895_o59  sigma_k895_o60  sigma_k896_o59  sigma_k896_o60 
 sigma_k897_o59  sigma_k897_o60  sigma_k898_o59  sigma_k898_o60 
 sigma_k899_o59  sigma_k899_o60  sigma_k900_o59  sigma_k900_o60 
End
